c --- [ banner ] -------------------------------------------------------------
c 
c CaDiCaL Radically Simplified CDCL SAT Solver
c Copyright (c) 2016-2021 A. Biere, M. Fleury, N. Froleyks
c 
c Version 1.5.2 a5f15211db36c3956764e18194dd5bd63bf3b5e6
c g++ (GCC) 9.3.0 -Wall -Wextra -O3 -DNDEBUG
c Fri Oct 21 01:27:37 EDT 2022 Linux gra-login3 3.10.0-1160.66.1.el7.x86_64 x86_64
c 
c --- [ limit ] --------------------------------------------------------------
c 
c setting conflict limit to 200000 conflicts (due to '200000')
c 
c --- [ parsing input ] ------------------------------------------------------
c 
c reading DIMACS file from '33.cubes1864.adj'
c opening file to read '33.cubes1864.adj'
c found 'p cnf 6160 1595472' header
c parsed 1595472 clauses in 18.83 seconds process time
c closing file '33.cubes1864.adj'
c after reading 1457566756 bytes 1390.0 MB
c 
c --- [ options ] ------------------------------------------------------------
c 
c all options are set to their default value
c 
c --- [ solving ] ------------------------------------------------------------
c 
c time measured in process time since initialization
c 
c  seconds    reductions  redundant   irredundant
c          MB     restarts       trail       variables
c            level   conflicts       glue         remaining
c 
c * 18.83 1381  0 0   0    0    0  0% 0 1595422 2425 39%
c { 20.30 1441  0 0   0    0    0  0% 0 1595422 2425 39%
c i 21.40 1478 859 0   0   18   16 31% 1 1595422 2417 39%
c i 21.45 1478 776 0   0   20   17 30% 2 1595422 2411 39%
c i 23.79 1510 427 0  12   61   47 26% 7 1595422 2401 39%
c i 23.98 1510 392 0  12   68   53 27% 9 1595422 2400 39%
c i 24.02 1510 388 0  13   69   53 27% 9 1595422 2399 39%
c i 24.08 1511 373 0  13   73   55 26% 11 1595422 2397 39%
c i 24.53 1515 340 0  16   83   62 26% 10 1595422 2391 39%
c i 24.76 1518 308 0  18   93   71 27% 14 1595422 2366 38%
c i 24.79 1518 302 0  19   95   72 27% 15 1595422 2365 38%
c i 25.94 1527 237 0  28  132  104 27% 18 1595422 2364 38%
c i 27.26 1531 153 0  48  261  207 26% 28 1595422 2363 38%
c i 27.36 1531 152 0  48  266  211 26% 29 1595422 2362 38%
c i 27.57 1531 150 0  51  274  218 26% 28 1595422 2356 38%
c i 27.60 1531 149 0  52  277  220 26% 28 1595422 2349 38%
c - 32.28 1473 143 1  58  301  239 27% 30 279533 2349 38%
c i 32.62 1377 137 1  64  330  262 27% 31 279533 2348 38%
c i 32.79 1377 131 1  72  372  297 27% 33 279533 2347 38%
c i 33.12 1377 114 1  81  463  356 26% 31 279533 2346 38%
c 
c  seconds     reductions  redundant   irredundant
c          MB      restarts       trail       variables
c             level   conflicts       glue         remaining
c 
c i 33.20 1377 110 1  81  507  392 26% 31 279533 2345 38%
c i 33.44 1377 95 1  86  667  527 27% 31 279533 2344 38%
c i 33.70 1377 99 1  93  714  571 28% 33 279533 2343 38%
c i 33.95 1377 90 1 101  812  603 26% 30 279533 2321 38%
c i 34.29 1377 89 1 108  880  648 26% 31 279533 2320 38%
c i 34.68 1377 91 1 113  920  684 26% 31 279533 2319 38%
c } 35.35 1377 92 1 128 1001  745 26% 32 279533 2319 38%
c [ 35.35 1377  0 1 128 1001  745  0% 0 279533 2319 38%
c O 35.35 1377  4 1 128 1002  746 12% 1 279533 2319 38%
c i 35.67 1377 28 1 128 1150  865 31% 23 279533 2318 38%
c - 36.27 1499 29 2 128 1170  763 31% 24 278673 2318 38%
c i 36.50 1499 30 2 128 1307  875 31% 25 278673 2317 38%
c i 36.52 1499 30 2 128 1327  891 31% 26 278673 2316 38%
c i 36.62 1499 31 2 128 1544 1041 31% 27 278673 2315 38%
c i 36.62 1499 31 2 128 1559 1052 31% 27 278673 2314 38%
c i 36.73 1499 31 2 128 1771 1213 31% 27 278673 2313 38%
c i 36.92 1499 30 2 129 2243 1576 31% 27 278673 2312 38%
c i 36.96 1499 30 2 129 2347 1648 31% 27 278673 2311 38%
c - 37.36 1498 30 3 129 2472 1356 31% 26 278652 2311 38%
c i 37.64 1498 29 3 129 2488 1366 53% 26 278652 2310 38%
c 
c  seconds    reductions  redundant   irredundant
c          MB     restarts       trail       variables
c            level   conflicts       glue         remaining
c 
c ] 37.84 1498 30 3 129 3002 1723 55% 26 278652 2310 38%
c { 37.84 1498 92 3 129 3002 1723 70% 32 278652 2310 38%
c F 37.87 1498 92 3 130 3003 1724 70% 32 278652 2310 38%
c i 38.05 1498 90 3 132 3034 1753 69% 32 278652 2309 37%
c i 38.06 1498 90 3 132 3040 1757 69% 31 278652 2308 37%
c i 38.28 1498 87 3 136 3106 1820 68% 32 278652 2307 37%
c i 38.53 1498 87 3 147 3147 1844 67% 32 278652 2306 37%
c i 38.70 1498 84 3 147 3229 1915 66% 32 278652 2305 37%
c i 38.99 1498 84 3 150 3272 1952 65% 32 278652 2304 37%
c i 39.20 1498 84 3 159 3327 1990 64% 32 278652 2303 37%
c i 39.51 1498 84 3 168 3358 2018 64% 33 278652 2302 37%
c i 40.01 1498 80 3 181 3509 2087 60% 32 278652 2301 37%
c i 40.37 1498 82 3 191 3564 2139 60% 34 278652 2300 37%
c i 40.44 1498 83 3 193 3570 2144 60% 34 278652 2299 37%
c i 41.69 1498 80 3 236 3942 2478 57% 34 278652 2298 37%
c i 41.74 1498 80 3 236 3962 2496 57% 34 278652 2297 37%
c - 42.53 1495 77 4 241 4210 1900 56% 33 278613 2297 37%
c i 42.75 1495 77 4 249 4243 1931 55% 33 278613 2296 37%
c i 43.52 1495 69 4 260 4763 2333 55% 30 278613 2295 37%
c d 44.24 1495 67 4 260 5006 2516 54% 30 278600 2291 37%
c 
c  seconds    reductions  redundant   irredundant
c          MB     restarts       trail       variables
c            level   conflicts       glue         remaining
c 
c 2 44.31 1495 67 4 260 5006 3337 54% 30 278590 2291 37%
c p 48.94 1495 67 4 260 5006 5995 54% 30 278590 2242 36%
c d 49.32 1495 67 4 260 5006 5863 54% 30 231060 2240 36%
c d 49.49 1495 67 4 260 5006 5863 54% 30 231058 2239 36%
c # 52.01 1495 61 4 301 6005 6698 52% 29 231058 2239 36%
c - 52.61 1378 58 5 301 6378 2816 52% 28 231058 2239 36%
c } 52.88 1379 53 5 301 7002 3239 52% 26 231058 2239 36%
c [ 52.88 1379 30 5 301 7002 3239 55% 26 231058 2239 36%
c - 53.74 1380 23 6 302 8833 3066 51% 20 231058 2239 36%
c I 54.60 1380 26 6 303 10006 3898 52% 22 231058 2239 36%
c - 57.03 1381 39 7 305 11699 3788 51% 29 231058 2239 36%
c - 60.07 1381 38 8 306 14976 4219 51% 30 231058 2239 36%
c ] 60.11 1381 38 8 306 15002 4233 51% 30 231058 2239 36%
c { 60.11 1381 53 8 306 15002 4233 52% 26 231058 2239 36%
c 2 60.17 1381 53 8 306 15010 5288 52% 26 231058 2239 36%
c p 61.87 1381 53 8 306 15010 7918 52% 26 231058 2239 36%
c B 61.94 1381 53 8 306 15011 7919 52% 26 231058 2239 36%
c - 69.50 1381 47 9 543 18659 5073 50% 26 231058 2239 36%
c s 69.79 1381 47 9 558 18725 4981 50% 26 229285 2239 36%
c v 73.21 1381 47 9 558 18725 4981 50% 26 229268 2239 36%
c 
c  seconds    reductions   redundant   irredundant
c          MB     restarts        trail       variables
c            level    conflicts       glue         remaining
c 
c t 73.31 1381 47 9 558 18725 4960 50% 26 229253 2239 36%
c e 74.15 1383 47 9 558 18725 4607 50% 26 226877 968 16%
c s 74.24 1383 47 9 558 18725 4607 50% 26 225942 968 16%
c W 80.36 1383 47 9 757 21015 6434 71% 27 225942 968 16%
c - 81.28 1383 43 10 776 22750 5925 71% 26 225942 968 16%
c - 84.07 1383 40 11 932 27219 6353 71% 25 225942 968 16%
c F 85.00 1383 40 11 969 28019 7046 71% 25 225942 968 16%
c 2 86.04 1383 39 11 969 30012 9072 72% 25 225942 968 16%
c p 89.27 1383 39 11 969 30012 11064 72% 25 225942 965 16%
c d 89.50 1383 39 11 969 30012 10957 72% 25 208943 964 16%
c } 89.94 1383 38 11 969 31002 11622 72% 25 208943 964 16%
c [ 89.94 1383 38 11 969 31002 11622 121% 30 208943 964 16%
c - 90.43 1383 37 12 969 32093 7017 115% 30 208943 964 16%
c B 91.78 1383 34 12 972 36020 9407 102% 28 208943 964 16%
c - 92.34 1383 38 13 972 37243 7219 99% 31 208943 964 16%
c - 94.48 1383 48 14 976 42789 7974 91% 39 208943 964 16%
c W 96.21 1383 49 14 976 45021 9578 89% 41 208943 964 16%
c - 97.53 1383 47 15 977 48729 8482 86% 39 208943 964 16%
c p 99.03 1383 46 15 977 50014 11954 86% 38 208943 964 16%
c s 99.43 1383 46 15 977 50193 12049 85% 38 207682 964 16%
c 
c  seconds     reductions     redundant   irredundant
c           MB      restarts         trail       variables
c             level     conflicts        glue        remaining
c 
c v 102.34 1383 46 15 977 50193 12049 85% 38 207677 964 16%
c t 102.43 1383 46 15 977 50193 12037 85% 38 207677 964 16%
c e 103.20 1384 46 15 977 50193 11930 85% 38 207604 935 15%
c s 103.34 1384 46 15 977 50193 11930 85% 38 205900 935 15%
c O 105.84 1384 42 15 978 55026 14928 83% 35 205900 935 15%
c - 105.94 1384 42 16 978 55065 8496 83% 35 205900 935 15%
c - 107.36 1384 39 17 983 61768 9062 81% 33 205900 935 15%
c ] 107.68 1384 39 17 984 63003 9926 80% 32 205900 935 15%
c { 107.68 1384 38 17 984 63003 9926 72% 25 205900 935 15%
c } 110.80 1384 39 17 1215 65437 11671 71% 25 205900 935 15%
c 1 110.80 1384 39 17 1215 65437 11671 71% 25 205900 935 15%
c 
c --- [ writing output ] -----------------------------------------------------
c 
c writing simplified CNF to DIMACS file 'simp/33.cubes1864.adj.simp1'
c * 110.80 1384 39 17 1215 65437 11671 71% 25 205900 935 15%
c opening file to write 'simp/33.cubes1864.adj.simp1'
c writing 'p cnf 6160 205900' header
c closing file 'simp/33.cubes1864.adj.simp1'
c after writing 101963273 bytes 97.2 MB
c wrote 205900 clauses in 0.74 seconds process time
c 
c --- [ writing extension ] --------------------------------------------------
c 
c writing extension stack to 'simp/33.cubes1864.adj.ext1'
c opening file to write 'simp/33.cubes1864.adj.ext1'
c closing file 'simp/33.cubes1864.adj.ext1'
c after writing 85315 bytes 0.1 MB
c wrote 3774 witnesses in 0.00 seconds process time
c 
c --- [ result ] -------------------------------------------------------------
c 
s SATISFIABLE
c 
c --- [ run-time profiling ] -------------------------------------------------
c 
c process time taken by individual solving procedures
c (percentage relative to process time for solving)
c 
c        69.91   76.02% search
c        46.66   50.73% unstable
c        22.05   23.98% simplify
c        20.83   22.65% stable
c        18.83   20.48% parse
c        10.60   11.53% probe
c         6.46    7.03% vivify
c         3.10    3.37% elim
c         1.47    1.59% lucky
c         0.95    1.04% walk
c         0.44    0.48% subsume
c         0.14    0.15% ternary
c   =================================
c        91.96   82.45% solve
c 
c last line shows process time for solving
c (percentage relative to total process time)
c 
c --- [ statistics ] ---------------------------------------------------------
c 
c chronological:             12459        19.04 %  of conflicts
c conflicts:                 65437       711.55    per second
c decisions:                165961      1804.64    per second
c eliminated:                 1300        21.10 %  of all variables
c fixed:                       773        12.55 %  of all variables
c learned:                   63959        97.74 %  per conflict
c learned_lits:           13145842       100.00 %  learned literals
c minimized:                     0         0.00 %  learned literals
c shrunken:                7572734        57.61 %  learned literals
c minishrunken:            1111679         8.46 %  learned literals
c propagations:            5618661         0.06 M  per second
c reduced:                   34482        52.69 %  per conflict
c rephased:                     10      6543.70    interval
c restarts:                   1215        53.86    interval
c stabilizing:                   3        64.19 %  of conflicts
c substituted:                   8         0.13 %  of all variables
c subsumed:                  23063         0.68 %  of all clauses
c strengthened:               9339         0.28 %  of all clauses
c ternary:                    2832         0.60 %  of resolved
c vivified:                     41         0.00 %  of all clauses
c walked:                        2     32718.50    interval
c weakened:                   3001         3.11    average size
c 
c seconds are measured in process time for solving
c 
c --- [ resources ] ----------------------------------------------------------
c 
c total process time since initialization:       111.54    seconds
c total real time since initialization:          112.33    seconds
c maximum resident set size of process:         1619.88    MB
c 
c --- [ shutting down ] ------------------------------------------------------
c 
c exit 10
WARNING! DIMACS header mismatch: wrong number of variables.
============================[ Problem Statistics ]=============================
|                                                                             |
|  Number of variables:          3492                                         |
|  Number of clauses:          205902                                         |
|  Parse time:                   1.43 s                                       |
|  Simplification time:          0.04 s                                       |
|                                                                             |
============================[ Search Statistics ]====================================================
| Conflicts |          ORIGINAL         |          LEARNT          | Num Sols |      SUBGRAPHS      |
|           |    Vars  Clauses Literals |    Limit  Clauses Lit/Cl |          | Canonical Noncanon. |
=====================================================================================================
|       482 |    3399   206284 21781067 |     2000      482     17 |        0 |       120       382 |
|      2190 |    3399   207842 21808374 |     3600     1190     14 |        0 |       329      1940 |
|      4019 |    3399   209446 21837836 |     3600     3019     16 |        0 |       622      3544 |
|      5289 |    3399   210379 21855289 |     5000     2489     17 |        0 |       842      4477 |
|      5826 |    3399   210410 21856014 |     5000     3026     36 |        0 |       851      4508 |
|      6612 |    3399   210437 21856440 |     5000     3812     53 |        0 |       858      4535 |
|      7857 |    3399   210543 21858236 |     6303     2560     15 |        0 |       868      4641 |
|      9616 |    3399   210594 21859574 |     6303     4319     59 |        0 |       888      4692 |
|     13530 |    3399   211946 21884856 |     7554     5084     27 |        0 |      1236      6044 |
|     18007 |    3399   212579 21896534 |     8781     5788     51 |        0 |      1417      6677 |
|     36787 |    3399   225593 22110382 |    12410     9597     42 |        0 |      3246     19691 |
|     45906 |    3399   226063 22119772 |    13622    12528     69 |        0 |      3331     20161 |
|     62580 |    3399   229763 22180562 |    16011    14991     67 |        0 |      3884     23861 |
|     85234 |    3399   232956 22237527 |    19612    11846     36 |        0 |      4479     27054 |
|    124433 |    3399   242963 22397311 |    23214    19847     44 |        3 |      6154     37058 |
|    171304 |    3399   246045 22457316 |    28008    16712     30 |        3 |      6832     40140 |
|    245109 |    3399   254166 22587310 |    32815    30924     54 |        3 |      8170     48261 |
|    349753 |    3399   260284 22680123 |    40014    28167     47 |        3 |      9508     54379 |
|    500321 |    3399   263063 22726869 |    48421    26142     26 |        5 |     10399     57156 |
|    725116 |    3399   266175 22780531 |    58030    40546     46 |        6 |     11346     60267 |
|   1091896 |    3399   300430 23215686 |    71215    55311     49 |        6 |     14657     94522 |
|   1613532 |    3371   160264 12186437 |    86806    67338     69 |        6 |     17287    117370 |
|   2417874 |    3371   216424 12926081 |   106017   105291     49 |        6 |     22363    173530 |
=====================================================================================================
Number of solutions   : 7
Canonical subgraphs   : 26277          (9 /sec)
          order  3    : 1              (inf /sec)
          order  4    : 1              (inf /sec)
          order  5    : 1              (inf /sec)
          order  6    : 1              (inf /sec)
          order  7    : 1              (inf /sec)
          order  8    : 2              (1104 /sec)
          order  9    : 6              (300 /sec)
          order 10    : 23             (89 /sec)
          order 11    : 82             (25 /sec)
          order 12    : 436            (7 /sec)
          order 13    : 1988           (8 /sec)
          order 14    : 14660          (12 /sec)
          order 15    : 3915           (9 /sec)
          order 16    : 3322           (5 /sec)
          order 17    : 1634           (5 /sec)
          order 18    : 124            (5 /sec)
          order 19    : 39             (5 /sec)
          order 20    : 18             (6 /sec)
          order 21    : 16             (6 /sec)
          order 22    : 7              (0 /sec)
Noncanonical subgraphs: 224603         (505 /sec)
          order  3    : 0              (-nan /sec)
          order  4    : 0              (-nan /sec)
          order  5    : 0              (-nan /sec)
          order  6    : 0              (-nan /sec)
          order  7    : 0              (-nan /sec)
          order  8    : 0              (-nan /sec)
          order  9    : 0              (-nan /sec)
          order 10    : 0              (-nan /sec)
          order 11    : 0              (-nan /sec)
          order 12    : 0              (-nan /sec)
          order 13    : 7154           (7940 /sec)
          order 14    : 31989          (2822 /sec)
          order 15    : 164678         (478 /sec)
          order 16    : 15917          (426 /sec)
          order 17    : 3201           (214 /sec)
          order 18    : 1584           (49 /sec)
          order 19    : 71             (49 /sec)
          order 20    : 0              (-nan /sec)
          order 21    : 0              (-nan /sec)
Canonicity checking   : 2982.26 s
Noncanonicity checking: 444.707 s
Total canonicity time : 3426.97 s
database reductions   : 106
restarts              : 6142
conflicts             : 3551369        (785 /sec)
decisions             : 4882377        (0.00 % random) (1080 /sec)
propagations          : 164535164      (36385 /sec)
conflict literals     : 372662806      (55.33 % deleted)
actual reward         : 0.259296
Memory used           : 292.00 MB
CPU time              : 4522.03 s

UNSATISFIABLE
